12
5 9
5 6
5 8
5 11
5 4
5 0
5 3
5 10
5 7
9 6
9 8
9 4
9 2
9 10
9 3
9 7
9 0
6 1
6 7
6 10
6 2
6 11
6 4
6 0
4 7
4 8
4 0
4 10
4 1
4 3
7 11
7 3
7 2
7 8
7 1
10 11
10 0
10 3
10 1
10 2
11 3
11 1
11 0
11 8
11 2
1 3
1 2
1 0
1 8
3 2
3 8
8 2
8 0
2 0
